p tw 100 13501 2 
1 3 
1 4 
1 5 
1 6 
1 7 
1 8 
1 9 
1 10 
1 11 
1 18 
1 21 
1 25 
1 31 
1 39 
1 41 
1 44 
1 51 
1 52 
1 61 
1 63 
1 71 
1 80 
1 81 
1 87 
1 91 
1 96 
2 3 
2 4 
2 5 
2 6 
2 7 
2 8 
2 9 
2 10 
2 12 
2 15 
2 22 
2 24 
2 32 
2 40 
2 42 
2 48 
2 52 
2 53 
2 62 
2 66 
2 71 
2 72 
2 82 
2 89 
2 92 
2 97 
3 4 
3 5 
3 6 
3 7 
3 8 
3 9 
3 10 
3 13 
3 17 
3 22 
3 23 
3 33 
3 38 
3 43 
3 50 
3 51 
3 53 
3 63 
3 65 
3 73 
3 79 
3 83 
3 86 
3 93 
3 94 
4 5 
4 6 
4 7 
4 8 
4 9 
4 10 
4 14 
4 20 
4 24 
4 26 
4 31 
4 34 
4 42 
4 44 
4 54 
4 55 
4 64 
4 68 
4 74 
4 77 
4 83 
4 84 
4 94 
4 99 
5 6 
5 7 
5 8 
5 9 
5 10 
5 12 
5 15 
5 25 
5 29 
5 34 
5 35 
5 45 
5 47 
5 55 
5 58 
5 61 
5 65 
5 75 
5 76 
5 85 
5 90 
5 93 
5 95 
6 7 
6 8 
6 9 
6 10 
6 11 
6 16 
6 23 
6 26 
6 32 
6 36 
6 46 
6 49 
6 56 
6 60 
6 66 
6 67 
6 76 
6 78 
6 84 
6 86 
6 95 
6 96 
7 8 
7 9 
7 10 
7 16 
7 17 
7 21 
7 27 
7 35 
7 37 
7 43 
7 47 
7 57 
7 59 
7 67 
7 70 
7 74 
7 77 
7 87 
7 88 
7 92 
7 97 
8 9 
8 10 
8 18 
8 19 
8 27 
8 28 
8 33 
8 38 
8 41 
8 48 
8 56 
8 58 
8 64 
8 68 
8 72 
8 78 
8 85 
8 88 
8 98 
8 100 
9 10 
9 14 
9 19 
9 29 
9 30 
9 36 
9 39 
9 45 
9 49 
9 57 
9 59 
9 62 
9 69 
9 73 
9 79 
9 81 
9 89 
9 98 
9 99 
10 13 
10 20 
10 28 
10 30 
10 37 
10 40 
10 46 
10 50 
10 54 
10 60 
10 69 
10 70 
10 75 
10 80 
10 82 
10 90 
10 91 
10 100 
11 12 
11 13 
11 14 
11 15 
11 16 
11 17 
11 18 
11 19 
11 20 
11 21 
11 23 
11 31 
11 32 
11 41 
11 49 
11 51 
11 60 
11 61 
11 67 
11 71 
11 78 
11 81 
11 84 
11 91 
11 95 
12 13 
12 14 
12 15 
12 16 
12 17 
12 18 
12 19 
12 20 
12 22 
12 29 
12 32 
12 34 
12 42 
12 47 
12 52 
12 58 
12 61 
12 62 
12 72 
12 76 
12 82 
12 90 
12 92 
12 93 
13 14 
13 15 
13 16 
13 17 
13 18 
13 19 
13 20 
13 23 
13 28 
13 33 
13 37 
13 43 
13 46 
13 53 
13 54 
13 63 
13 69 
13 73 
13 75 
13 82 
13 83 
13 91 
13 93 
14 15 
14 16 
14 17 
14 18 
14 19 
14 20 
14 24 
14 30 
14 34 
14 36 
14 44 
14 45 
14 54 
14 57 
14 62 
14 64 
14 73 
14 74 
14 81 
14 84 
14 94 
14 98 
15 16 
15 17 
15 18 
15 19 
15 20 
15 24 
15 25 
15 35 
15 40 
15 45 
15 48 
15 53 
15 55 
15 65 
15 66 
15 71 
15 75 
15 85 
15 89 
15 95 
15 97 
16 17 
16 18 
16 19 
16 20 
16 21 
16 26 
16 35 
16 36 
16 43 
16 46 
16 56 
16 59 
16 66 
16 70 
16 74 
16 76 
16 86 
16 88 
16 92 
16 96 
17 18 
17 19 
17 20 
17 22 
17 27 
17 37 
17 38 
17 47 
17 50 
17 51 
17 57 
17 65 
17 67 
17 77 
17 79 
17 86 
17 87 
17 94 
17 97 
18 19 
18 20 
18 25 
18 28 
18 38 
18 39 
18 44 
18 48 
18 52 
18 58 
18 63 
18 68 
18 78 
18 80 
18 87 
18 88 
18 96 
18 98 
19 20 
19 27 
19 29 
19 33 
19 39 
19 41 
19 49 
19 56 
19 59 
19 64 
19 69 
19 72 
19 79 
19 85 
19 89 
19 99 
19 100 
20 26 
20 30 
20 31 
20 40 
20 42 
20 50 
20 55 
20 60 
20 68 
20 70 
20 77 
20 80 
20 83 
20 90 
20 99 
20 100 
21 22 
21 23 
21 24 
21 25 
21 26 
21 27 
21 28 
21 29 
21 30 
21 31 
21 35 
21 41 
21 43 
21 51 
21 59 
21 61 
21 70 
21 71 
21 74 
21 81 
21 88 
21 91 
21 92 
22 23 
22 24 
22 25 
22 26 
22 27 
22 28 
22 29 
22 30 
22 32 
22 38 
22 42 
22 50 
22 51 
22 52 
22 62 
22 65 
22 72 
22 79 
22 82 
22 86 
22 92 
22 94 
23 24 
23 25 
23 26 
23 27 
23 28 
23 29 
23 30 
23 32 
23 33 
23 43 
23 49 
23 53 
23 60 
23 63 
23 67 
23 73 
23 78 
23 83 
23 84 
23 93 
23 95 
24 25 
24 26 
24 27 
24 28 
24 29 
24 30 
24 34 
24 40 
24 44 
24 48 
24 53 
24 54 
24 64 
24 66 
24 71 
24 74 
24 84 
24 89 
24 94 
24 97 
25 26 
25 27 
25 28 
25 29 
25 30 
25 35 
25 39 
25 44 
25 45 
25 52 
25 55 
25 63 
25 65 
25 75 
25 80 
25 85 
25 87 
25 95 
25 96 
26 27 
26 28 
26 29 
26 30 
26 31 
26 36 
26 42 
26 46 
26 55 
26 56 
26 66 
26 68 
26 76 
26 77 
26 83 
26 86 
26 96 
26 99 
27 28 
27 29 
27 30 
27 33 
27 37 
27 41 
27 47 
27 56 
27 57 
27 64 
27 67 
27 72 
27 77 
27 85 
27 87 
27 97 
27 100 
28 29 
28 30 
28 37 
28 38 
28 46 
28 48 
28 54 
28 58 
28 68 
28 69 
28 75 
28 78 
28 82 
28 88 
28 91 
28 98 
29 30 
29 34 
29 39 
29 47 
29 49 
29 58 
29 59 
29 61 
29 69 
29 76 
29 79 
29 89 
29 90 
29 93 
29 99 
30 36 
30 40 
30 45 
30 50 
30 57 
30 60 
30 62 
30 70 
30 73 
30 80 
30 81 
30 90 
30 98 
30 100 
31 32 
31 33 
31 34 
31 35 
31 36 
31 37 
31 38 
31 39 
31 40 
31 41 
31 42 
31 51 
31 55 
31 61 
31 68 
31 71 
31 77 
31 81 
31 83 
31 91 
31 99 
32 33 
32 34 
32 35 
32 36 
32 37 
32 38 
32 39 
32 40 
32 42 
32 49 
32 52 
32 60 
32 62 
32 67 
32 72 
32 78 
32 82 
32 84 
32 92 
32 95 
33 34 
33 35 
33 36 
33 37 
33 38 
33 39 
33 40 
33 41 
33 43 
33 53 
33 56 
33 63 
33 64 
33 72 
33 73 
33 83 
33 85 
33 93 
33 100 
34 35 
34 36 
34 37 
34 38 
34 39 
34 40 
34 44 
34 47 
34 54 
34 58 
34 61 
34 64 
34 74 
34 76 
34 84 
34 90 
34 93 
34 94 
35 36 
35 37 
35 38 
35 39 
35 40 
35 43 
35 45 
35 55 
35 59 
35 65 
35 70 
35 74 
35 75 
35 85 
35 88 
35 92 
35 95 
36 37 
36 38 
36 39 
36 40 
36 45 
36 46 
36 56 
36 57 
36 62 
36 66 
36 73 
36 76 
36 81 
36 86 
36 96 
36 98 
37 38 
37 39 
37 40 
37 46 
37 47 
37 54 
37 57 
37 67 
37 69 
37 75 
37 77 
37 82 
37 87 
37 91 
37 97 
38 39 
38 40 
38 48 
38 50 
38 51 
38 58 
38 65 
38 68 
38 78 
38 79 
38 86 
38 88 
38 94 
38 98 
39 40 
39 44 
39 49 
39 52 
39 59 
39 63 
39 69 
39 79 
39 80 
39 87 
39 89 
39 96 
39 99 
40 48 
40 50 
40 53 
40 60 
40 66 
40 70 
40 71 
40 80 
40 89 
40 90 
40 97 
40 100 
41 42 
41 43 
41 44 
41 45 
41 46 
41 47 
41 48 
41 49 
41 50 
41 51 
41 56 
41 61 
41 64 
41 71 
41 72 
41 81 
41 85 
41 91 
41 100 
42 43 
42 44 
42 45 
42 46 
42 47 
42 48 
42 49 
42 50 
42 52 
42 55 
42 62 
42 68 
42 72 
42 77 
42 82 
42 83 
42 92 
42 99 
43 44 
43 45 
43 46 
43 47 
43 48 
43 49 
43 50 
43 53 
43 59 
43 63 
43 70 
43 73 
43 74 
43 83 
43 88 
43 92 
43 93 
44 45 
44 46 
44 47 
44 48 
44 49 
44 50 
44 52 
44 54 
44 63 
44 64 
44 74 
44 80 
44 84 
44 87 
44 94 
44 96 
45 46 
45 47 
45 48 
45 49 
45 50 
45 55 
45 57 
45 62 
45 65 
45 73 
45 75 
45 81 
45 85 
45 95 
45 98 
46 47 
46 48 
46 49 
46 50 
46 54 
46 56 
46 66 
46 69 
46 75 
46 76 
46 82 
46 86 
46 91 
46 96 
47 48 
47 49 
47 50 
47 57 
47 58 
47 61 
47 67 
47 76 
47 77 
47 87 
47 90 
47 93 
47 97 
48 49 
48 50 
48 53 
48 58 
48 66 
48 68 
48 71 
48 78 
48 88 
48 89 
48 97 
48 98 
49 50 
49 59 
49 60 
49 67 
49 69 
49 78 
49 79 
49 84 
49 89 
49 95 
49 99 
50 51 
50 60 
50 65 
50 70 
50 79 
50 80 
50 86 
50 90 
50 94 
50 100 
51 52 
51 53 
51 54 
51 55 
51 56 
51 57 
51 58 
51 59 
51 60 
51 61 
51 65 
51 71 
51 79 
51 81 
51 86 
51 91 
51 94 
52 53 
52 54 
52 55 
52 56 
52 57 
52 58 
52 59 
52 60 
52 62 
52 63 
52 72 
52 80 
52 82 
52 87 
52 92 
52 96 
53 54 
53 55 
53 56 
53 57 
53 58 
53 59 
53 60 
53 63 
53 66 
53 71 
53 73 
53 83 
53 89 
53 93 
53 97 
54 55 
54 56 
54 57 
54 58 
54 59 
54 60 
54 64 
54 69 
54 74 
54 75 
54 82 
54 84 
54 91 
54 94 
55 56 
55 57 
55 58 
55 59 
55 60 
55 65 
55 68 
55 75 
55 77 
55 83 
55 85 
55 95 
55 99 
56 57 
56 58 
56 59 
56 60 
56 64 
56 66 
56 72 
56 76 
56 85 
56 86 
56 96 
56 100 
57 58 
57 59 
57 60 
57 62 
57 67 
57 73 
57 77 
57 81 
57 87 
57 97 
57 98 
58 59 
58 60 
58 61 
58 68 
58 76 
58 78 
58 88 
58 90 
58 93 
58 98 
59 60 
59 69 
59 70 
59 74 
59 79 
59 88 
59 89 
59 92 
59 99 
60 67 
60 70 
60 78 
60 80 
60 84 
60 90 
60 95 
60 100 
61 62 
61 63 
61 64 
61 65 
61 66 
61 67 
61 68 
61 69 
61 70 
61 71 
61 76 
61 81 
61 90 
61 91 
61 93 
62 63 
62 64 
62 65 
62 66 
62 67 
62 68 
62 69 
62 70 
62 72 
62 73 
62 81 
62 82 
62 92 
62 98 
63 64 
63 65 
63 66 
63 67 
63 68 
63 69 
63 70 
63 73 
63 80 
63 83 
63 87 
63 93 
63 96 
64 65 
64 66 
64 67 
64 68 
64 69 
64 70 
64 72 
64 74 
64 84 
64 85 
64 94 
64 100 
65 66 
65 67 
65 68 
65 69 
65 70 
65 75 
65 79 
65 85 
65 86 
65 94 
65 95 
66 67 
66 68 
66 69 
66 70 
66 71 
66 76 
66 86 
66 89 
66 96 
66 97 
67 68 
67 69 
67 70 
67 77 
67 78 
67 84 
67 87 
67 95 
67 97 
68 69 
68 70 
68 77 
68 78 
68 83 
68 88 
68 98 
68 99 
69 70 
69 75 
69 79 
69 82 
69 89 
69 91 
69 99 
70 74 
70 80 
70 88 
70 90 
70 92 
70 100 
71 72 
71 73 
71 74 
71 75 
71 76 
71 77 
71 78 
71 79 
71 80 
71 81 
71 89 
71 91 
71 97 
72 73 
72 74 
72 75 
72 76 
72 77 
72 78 
72 79 
72 80 
72 82 
72 85 
72 92 
72 100 
73 74 
73 75 
73 76 
73 77 
73 78 
73 79 
73 80 
73 81 
73 83 
73 93 
73 98 
74 75 
74 76 
74 77 
74 78 
74 79 
74 80 
74 84 
74 88 
74 92 
74 94 
75 76 
75 77 
75 78 
75 79 
75 80 
75 82 
75 85 
75 91 
75 95 
76 77 
76 78 
76 79 
76 80 
76 86 
76 90 
76 93 
76 96 
77 78 
77 79 
77 80 
77 83 
77 87 
77 97 
77 99 
78 79 
78 80 
78 84 
78 88 
78 95 
78 98 
79 80 
79 86 
79 89 
79 94 
79 99 
80 87 
80 90 
80 96 
80 100 
81 82 
81 83 
81 84 
81 85 
81 86 
81 87 
81 88 
81 89 
81 90 
81 91 
81 98 
82 83 
82 84 
82 85 
82 86 
82 87 
82 88 
82 89 
82 90 
82 91 
82 92 
83 84 
83 85 
83 86 
83 87 
83 88 
83 89 
83 90 
83 93 
83 99 
84 85 
84 86 
84 87 
84 88 
84 89 
84 90 
84 94 
84 95 
85 86 
85 87 
85 88 
85 89 
85 90 
85 95 
85 100 
86 87 
86 88 
86 89 
86 90 
86 94 
86 96 
87 88 
87 89 
87 90 
87 96 
87 97 
88 89 
88 90 
88 92 
88 98 
89 90 
89 97 
89 99 
90 93 
90 100 
91 92 
91 93 
91 94 
91 95 
91 96 
91 97 
91 98 
91 99 
91 100 
92 93 
92 94 
92 95 
92 96 
92 97 
92 98 
92 99 
92 100 
93 94 
93 95 
93 96 
93 97 
93 98 
93 99 
93 100 
94 95 
94 96 
94 97 
94 98 
94 99 
94 100 
95 96 
95 97 
95 98 
95 99 
95 100 
96 97 
96 98 
96 99 
96 100 
97 98 
97 99 
97 100 
98 99 
98 100 
99 100 
